NAME: random-30-21362
TYPE: TSP
COMMENT: size=30 seed=21362
DIMENSION: 62
EDGE_WEIGHT_TYPE: EUC_2D
NODE_COORD_SECTION
+0 134 715
-0 134 715
+1 800 445
-1 340 689
+2 509 656
-2 56 265
+3 207 718
-3 420 281
+4 335 790
-4 150 275
+5 740 688
-5 751 709
+6 195 114
-6 130 693
+7 150 504
-7 552 558
+8 262 243
-8 792 29
+9 840 712
-9 608 14
+10 835 381
-10 527 461
+11 271 546
-11 212 289
+12 453 900
-12 31 751
+13 183 544
-13 738 648
+14 264 727
-14 826 315
+15 89 373
-15 975 383
+16 790 642
-16 479 810
+17 374 721
-17 564 840
+18 277 266
-18 678 781
+19 459 389
-19 101 87
+20 729 362
-20 12 580
+21 245 734
-21 641 336
+22 812 169
-22 349 205
+23 604 576
-23 555 955
+24 298 522
-24 365 297
+25 743 949
-25 957 313
+26 493 79
-26 494 932
+27 276 992
-27 482 327
+28 681 881
-28 714 287
+29 840 470
-29 667 602
+30 999 979
-30 620 946
PRECEDENCE_SECTION
+0 -0
+1 -1
+2 -2
+3 -3
+4 -4
+5 -5
+6 -6
+7 -7
+8 -8
+9 -9
+10 -10
+11 -11
+12 -12
+13 -13
+14 -14
+15 -15
+16 -16
+17 -17
+18 -18
+19 -19
+20 -20
+21 -21
+22 -22
+23 -23
+24 -24
+25 -25
+26 -26
+27 -27
+28 -28
+29 -29
+30 -30
EOF
